(set-info :smt-lib-version 2.6)
(set-logic QF_LRA)
(set-info :source |
SAL benchmark suite.  Created at SRI by Bruno Dutertre, John Rushby, Maria
Sorea, and Leonardo de Moura.  Contact demoura@csl.sri.com for more
information.

This benchmark was automatically translated into SMT-LIB format from
CVC format using CVC Lite
|)
(set-info :category "industrial")
(set-info :status unsat)
(declare-fun x_0 () Bool)
(declare-fun x_1 () Bool)
(declare-fun x_2 () Bool)
(declare-fun x_3 () Bool)
(declare-fun x_4 () Bool)
(declare-fun x_5 () Bool)
(declare-fun x_6 () Real)
(declare-fun x_7 () Real)
(declare-fun x_8 () Real)
(declare-fun x_9 () Real)
(declare-fun x_10 () Real)
(declare-fun x_11 () Real)
(declare-fun x_12 () Bool)
(declare-fun x_13 () Bool)
(declare-fun x_14 () Bool)
(declare-fun x_15 () Bool)
(declare-fun x_16 () Bool)
(declare-fun x_17 () Bool)
(declare-fun x_18 () Bool)
(declare-fun x_19 () Real)
(declare-fun x_20 () Bool)
(declare-fun x_21 () Bool)
(declare-fun x_22 () Real)
(declare-fun x_23 () Real)
(declare-fun x_24 () Real)
(declare-fun x_25 () Real)
(declare-fun x_26 () Bool)
(declare-fun x_27 () Bool)
(declare-fun x_28 () Real)
(declare-fun x_29 () Real)
(declare-fun x_30 () Bool)
(declare-fun x_31 () Bool)
(declare-fun x_32 () Real)
(declare-fun x_33 () Bool)
(declare-fun x_34 () Bool)
(declare-fun x_35 () Real)
(declare-fun x_36 () Bool)
(declare-fun x_37 () Bool)
(declare-fun x_38 () Bool)
(declare-fun x_39 () Bool)
(declare-fun x_40 () Bool)
(declare-fun x_41 () Bool)
(declare-fun x_42 () Real)
(declare-fun x_43 () Bool)
(declare-fun x_44 () Bool)
(declare-fun x_45 () Real)
(declare-fun x_46 () Real)
(declare-fun x_47 () Real)
(declare-fun x_48 () Bool)
(declare-fun x_49 () Bool)
(declare-fun x_50 () Real)
(declare-fun x_51 () Real)
(declare-fun x_52 () Real)
(declare-fun x_53 () Real)
(declare-fun x_54 () Bool)
(declare-fun x_55 () Bool)
(declare-fun x_56 () Bool)
(declare-fun x_57 () Bool)
(declare-fun x_58 () Bool)
(declare-fun x_59 () Bool)
(declare-fun x_60 () Real)
(declare-fun x_61 () Bool)
(declare-fun x_62 () Bool)
(declare-fun x_63 () Real)
(declare-fun x_64 () Real)
(declare-fun x_65 () Real)
(declare-fun x_66 () Bool)
(declare-fun x_67 () Bool)
(declare-fun x_68 () Real)
(declare-fun x_69 () Real)
(declare-fun x_70 () Real)
(declare-fun x_71 () Real)
(declare-fun x_72 () Bool)
(declare-fun x_73 () Bool)
(declare-fun x_74 () Bool)
(declare-fun x_75 () Bool)
(declare-fun x_76 () Bool)
(declare-fun x_77 () Bool)
(declare-fun x_78 () Real)
(declare-fun x_79 () Bool)
(declare-fun x_80 () Bool)
(declare-fun x_81 () Real)
(declare-fun x_82 () Real)
(declare-fun x_83 () Real)
(declare-fun x_84 () Bool)
(declare-fun x_85 () Bool)
(declare-fun x_86 () Real)
(declare-fun x_87 () Real)
(declare-fun x_88 () Real)
(declare-fun x_89 () Real)
(declare-fun x_90 () Bool)
(declare-fun x_91 () Bool)
(declare-fun x_92 () Bool)
(declare-fun x_93 () Bool)
(declare-fun x_94 () Bool)
(declare-fun x_95 () Bool)
(declare-fun x_96 () Real)
(declare-fun x_97 () Bool)
(declare-fun x_98 () Bool)
(declare-fun x_99 () Real)
(declare-fun x_100 () Real)
(declare-fun x_101 () Real)
(declare-fun x_102 () Bool)
(declare-fun x_103 () Bool)
(declare-fun x_104 () Real)
(declare-fun x_105 () Real)
(declare-fun x_106 () Real)
(declare-fun x_107 () Real)
(assert (let ((?v_23 (+ x_82 x_10)) (?v_24 (and (= x_90 x_72) (= x_91 x_73))) (?v_14 (not x_92))) (let ((?v_16 (and ?v_14 x_93)) (?v_33 (and (= x_94 x_76) (= x_95 x_77))) (?v_9 (= x_86 1)) (?v_31 (= x_96 x_78)) (?v_12 (and (= x_97 x_79) (= x_98 x_80))) (?v_5 (= x_99 x_81)) (?v_11 (+ x_81 x_10)) (?v_28 (= x_96 0)) (?v_0 (= x_86 0)) (?v_21 (= x_100 x_82)) (?v_17 (= x_100 0)) (?v_26 (= x_101 x_83)) (?v_32 (+ x_78 x_10)) (?v_2 (not x_102))) (let ((?v_4 (and ?v_2 x_103)) (?v_53 (+ x_64 x_9)) (?v_54 (and (= x_72 x_54) (= x_73 x_55))) (?v_46 (not x_74))) (let ((?v_48 (and ?v_46 x_75)) (?v_61 (and (= x_76 x_58) (= x_77 x_59))) (?v_41 (= x_68 1)) (?v_59 (= x_78 x_60)) (?v_44 (and (= x_79 x_61) (= x_80 x_62))) (?v_39 (= x_81 x_63)) (?v_43 (+ x_63 x_9)) (?v_58 (= x_78 0)) (?v_34 (= x_68 0)) (?v_51 (= x_82 x_64)) (?v_49 (= x_82 0)) (?v_56 (= x_83 x_65)) (?v_60 (+ x_60 x_9)) (?v_36 (not x_84))) (let ((?v_38 (and ?v_36 x_85)) (?v_81 (+ x_46 x_8)) (?v_82 (and (= x_54 x_36) (= x_55 x_37))) (?v_74 (not x_56))) (let ((?v_76 (and ?v_74 x_57)) (?v_89 (and (= x_58 x_40) (= x_59 x_41))) (?v_69 (= x_50 1)) (?v_87 (= x_60 x_42)) (?v_72 (and (= x_61 x_43) (= x_62 x_44))) (?v_67 (= x_63 x_45)) (?v_71 (+ x_45 x_8)) (?v_86 (= x_60 0)) (?v_62 (= x_50 0)) (?v_79 (= x_64 x_46)) (?v_77 (= x_64 0)) (?v_84 (= x_65 x_47)) (?v_88 (+ x_42 x_8)) (?v_64 (not x_66))) (let ((?v_66 (and ?v_64 x_67)) (?v_109 (+ x_23 x_7)) (?v_110 (and (= x_36 x_12) (= x_37 x_13))) (?v_102 (not x_38))) (let ((?v_104 (and ?v_102 x_39)) (?v_117 (and (= x_40 x_16) (= x_41 x_17))) (?v_97 (= x_28 1)) (?v_115 (= x_42 x_19)) (?v_100 (and (= x_43 x_20) (= x_44 x_21))) (?v_95 (= x_45 x_22)) (?v_99 (+ x_22 x_7)) (?v_114 (= x_42 0)) (?v_90 (= x_28 0)) (?v_107 (= x_46 x_23)) (?v_105 (= x_46 0)) (?v_112 (= x_47 x_24)) (?v_116 (+ x_19 x_7)) (?v_92 (not x_48))) (let ((?v_94 (and ?v_92 x_49)) (?v_126 (+ 0 x_6)) (?v_135 (and (= x_12 x_2) (= x_13 x_3))) (?v_130 (not x_14))) (let ((?v_132 (and ?v_130 x_15)) (?v_140 (and (= x_16 x_4) (= x_17 x_5))) (?v_139 (= x_19 0)) (?v_127 (and (= x_20 x_0) (= x_21 x_1))) (?v_122 (= x_22 0)) (?v_120 (not x_18)) (?v_131 (= x_23 0)) (?v_138 (= x_24 x_25)) (?v_121 (not x_26))) (let ((?v_123 (and ?v_121 x_27)) (?v_118 (not x_0)) (?v_119 (not x_1)) (?v_128 (not x_2)) (?v_129 (not x_3)) (?v_136 (not x_4)) (?v_137 (not x_5)) (?v_3 (not x_79)) (?v_1 (not x_80)) (?v_6 (not x_103)) (?v_8 (not x_98)) (?v_7 (not x_97)) (?v_15 (not x_72)) (?v_13 (not x_73)) (?v_20 (not x_91)) (?v_18 (not x_93)) (?v_19 (not x_90)) (?v_27 (not x_76)) (?v_25 (not x_77)) (?v_30 (not x_95)) (?v_29 (not x_94))) (let ((?v_141 (or ?v_27 ?v_25)) (?v_37 (not x_61)) (?v_35 (not x_62)) (?v_40 (not x_85)) (?v_47 (not x_54)) (?v_45 (not x_55)) (?v_50 (not x_75)) (?v_57 (not x_58)) (?v_55 (not x_59))) (let ((?v_142 (or ?v_57 ?v_55)) (?v_65 (not x_43)) (?v_63 (not x_44)) (?v_68 (not x_67)) (?v_75 (not x_36)) (?v_73 (not x_37)) (?v_78 (not x_57)) (?v_85 (not x_40)) (?v_83 (not x_41))) (let ((?v_143 (or ?v_85 ?v_83)) (?v_93 (not x_20)) (?v_91 (not x_21)) (?v_96 (not x_49)) (?v_103 (not x_12)) (?v_101 (not x_13)) (?v_106 (not x_39)) (?v_113 (not x_16)) (?v_111 (not x_17))) (let ((?v_144 (or ?v_113 ?v_111)) (?v_124 (not x_27)) (?v_133 (not x_15)) (?v_145 (or ?v_136 ?v_137)) (?v_10 (<= ?v_11 5)) (?v_22 (<= ?v_23 1)) (?v_42 (<= ?v_43 5)) (?v_52 (<= ?v_53 1)) (?v_70 (<= ?v_71 5)) (?v_80 (<= ?v_81 1)) (?v_98 (<= ?v_99 5)) (?v_108 (<= ?v_109 1)) (?v_125 (<= ?v_126 5)) (?v_134 (<= ?v_126 1))) (and (and (and (and (and (and (and (and (and (and (and (and (and (and (and (and (and (and (and (and (and (and (and (and (and (and (and (and (and (and (and (and (and (and (and (and (and (and (and (and (and (and (and (and (and (and (and (and (and (and (and (<= x_104 1) (>= x_104 0)) (<= x_86 1)) (>= x_86 0)) (<= x_68 1)) (>= x_68 0)) (<= x_50 1)) (>= x_50 0)) (<= x_28 1)) (>= x_28 0)) (and ?v_118 ?v_119)) (and ?v_128 ?v_129)) (and ?v_136 ?v_137)) (not (< x_11 0))) (not (< x_10 0))) (not (< x_9 0))) (not (< x_8 0))) (not (< x_7 0))) (not (< x_6 0))) (= x_104 (ite ?v_9 0 1))) (or (or (or (or (or (and (and (and (and (and (and (and (and (= x_105 0) ?v_0) ?v_3) ?v_1) ?v_2) ?v_6) x_97) ?v_8) (= x_99 0)) (and (and (and (and (and (and (and (and (= x_105 1) ?v_0) x_79) ?v_1) (not (<= x_81 2))) ?v_4) ?v_7) x_98) ?v_5)) (and (and (and (and (and (and (and (= x_105 2) ?v_0) ?v_3) x_80) ?v_4) x_97) x_98) ?v_5)) (and (and (and (and (and (and (and (and (= x_105 3) ?v_0) x_79) x_80) x_102) ?v_6) ?v_7) ?v_8) ?v_5)) (and (and (and (and (and (and (and (and (= x_105 4) ?v_9) (or (or ?v_3 x_80) ?v_10)) (or (or x_79 ?v_1) ?v_10)) (or (or ?v_3 ?v_1) ?v_10)) (= x_99 ?v_11)) (= x_102 x_84)) (= x_103 x_85)) ?v_12)) (and (and (and (and (= x_105 5) ?v_0) ?v_5) ?v_4) ?v_12))) (or (or (or (or (or (and (and (and (and (and (and (and (and (and (= x_106 0) ?v_0) ?v_15) ?v_13) ?v_2) ?v_6) ?v_16) x_90) ?v_20) ?v_17) (and (and (and (and (and (and (and (and (and (= x_106 1) ?v_0) x_72) ?v_13) (= x_82 1)) ?v_14) ?v_18) ?v_19) x_91) ?v_21)) (and (and (and (and (and (and (and (and (and (= x_106 2) ?v_0) ?v_15) x_73) x_102) ?v_6) ?v_16) x_90) x_91) ?v_17)) (and (and (and (and (and (and (and (and (= x_106 3) ?v_0) x_72) x_73) x_92) ?v_18) ?v_19) ?v_20) ?v_21)) (and (and (and (and (and (and (and (= x_106 4) ?v_9) (or (or ?v_15 x_73) ?v_22)) (or (or ?v_15 ?v_13) ?v_22)) (= x_100 ?v_23)) (= x_92 x_74)) (= x_93 x_75)) ?v_24)) (and (and (and (and (and (and (= x_106 5) ?v_0) ?v_2) x_103) ?v_21) ?v_16) ?v_24))) (or (or (or (or (or (and (and (and (and (and (and (and (and (and (= x_107 0) ?v_0) ?v_27) ?v_25) ?v_14) ?v_18) x_94) ?v_30) ?v_28) ?v_26) (and (and (and (and (and (and (and (= x_107 1) ?v_0) x_76) ?v_25) ?v_29) x_95) ?v_26) ?v_31)) (and (and (and (and (and (and (and (and (and (= x_107 2) ?v_0) ?v_27) x_77) x_92) ?v_18) x_94) x_95) ?v_28) ?v_26)) (and (and (and (and (and (and (and (and (= x_107 3) ?v_0) x_76) x_77) (not (< x_78 1))) ?v_29) ?v_30) ?v_26) ?v_31)) (and (and (and (and (and (and (= x_107 4) ?v_9) (or (or ?v_27 x_77) (<= ?v_32 1))) (or ?v_141 (<= ?v_32 2))) (= x_96 ?v_32)) ?v_33) ?v_26)) (and (and (and (and (and (and (= x_107 5) ?v_0) ?v_14) x_93) ?v_31) ?v_33) ?v_26))) (= x_86 (ite ?v_41 0 1))) (or (or (or (or (or (and (and (and (and (and (and (and (and (= x_87 0) ?v_34) ?v_37) ?v_35) ?v_36) ?v_40) x_79) ?v_1) (= x_81 0)) (and (and (and (and (and (and (and (and (= x_87 1) ?v_34) x_61) ?v_35) (not (<= x_63 2))) ?v_38) ?v_3) x_80) ?v_39)) (and (and (and (and (and (and (and (= x_87 2) ?v_34) ?v_37) x_62) ?v_38) x_79) x_80) ?v_39)) (and (and (and (and (and (and (and (and (= x_87 3) ?v_34) x_61) x_62) x_84) ?v_40) ?v_3) ?v_1) ?v_39)) (and (and (and (and (and (and (and (and (= x_87 4) ?v_41) (or (or ?v_37 x_62) ?v_42)) (or (or x_61 ?v_35) ?v_42)) (or (or ?v_37 ?v_35) ?v_42)) (= x_81 ?v_43)) (= x_84 x_66)) (= x_85 x_67)) ?v_44)) (and (and (and (and (= x_87 5) ?v_34) ?v_39) ?v_38) ?v_44))) (or (or (or (or (or (and (and (and (and (and (and (and (and (and (= x_88 0) ?v_34) ?v_47) ?v_45) ?v_36) ?v_40) ?v_48) x_72) ?v_13) ?v_49) (and (and (and (and (and (and (and (and (and (= x_88 1) ?v_34) x_54) ?v_45) (= x_64 1)) ?v_46) ?v_50) ?v_15) x_73) ?v_51)) (and (and (and (and (and (and (and (and (and (= x_88 2) ?v_34) ?v_47) x_55) x_84) ?v_40) ?v_48) x_72) x_73) ?v_49)) (and (and (and (and (and (and (and (and (= x_88 3) ?v_34) x_54) x_55) x_74) ?v_50) ?v_15) ?v_13) ?v_51)) (and (and (and (and (and (and (and (= x_88 4) ?v_41) (or (or ?v_47 x_55) ?v_52)) (or (or ?v_47 ?v_45) ?v_52)) (= x_82 ?v_53)) (= x_74 x_56)) (= x_75 x_57)) ?v_54)) (and (and (and (and (and (and (= x_88 5) ?v_34) ?v_36) x_85) ?v_51) ?v_48) ?v_54))) (or (or (or (or (or (and (and (and (and (and (and (and (and (and (= x_89 0) ?v_34) ?v_57) ?v_55) ?v_46) ?v_50) x_76) ?v_25) ?v_58) ?v_56) (and (and (and (and (and (and (and (= x_89 1) ?v_34) x_58) ?v_55) ?v_27) x_77) ?v_56) ?v_59)) (and (and (and (and (and (and (and (and (and (= x_89 2) ?v_34) ?v_57) x_59) x_74) ?v_50) x_76) x_77) ?v_58) ?v_56)) (and (and (and (and (and (and (and (and (= x_89 3) ?v_34) x_58) x_59) (not (< x_60 1))) ?v_27) ?v_25) ?v_56) ?v_59)) (and (and (and (and (and (and (= x_89 4) ?v_41) (or (or ?v_57 x_59) (<= ?v_60 1))) (or ?v_142 (<= ?v_60 2))) (= x_78 ?v_60)) ?v_61) ?v_56)) (and (and (and (and (and (and (= x_89 5) ?v_34) ?v_46) x_75) ?v_59) ?v_61) ?v_56))) (= x_68 (ite ?v_69 0 1))) (or (or (or (or (or (and (and (and (and (and (and (and (and (= x_69 0) ?v_62) ?v_65) ?v_63) ?v_64) ?v_68) x_61) ?v_35) (= x_63 0)) (and (and (and (and (and (and (and (and (= x_69 1) ?v_62) x_43) ?v_63) (not (<= x_45 2))) ?v_66) ?v_37) x_62) ?v_67)) (and (and (and (and (and (and (and (= x_69 2) ?v_62) ?v_65) x_44) ?v_66) x_61) x_62) ?v_67)) (and (and (and (and (and (and (and (and (= x_69 3) ?v_62) x_43) x_44) x_66) ?v_68) ?v_37) ?v_35) ?v_67)) (and (and (and (and (and (and (and (and (= x_69 4) ?v_69) (or (or ?v_65 x_44) ?v_70)) (or (or x_43 ?v_63) ?v_70)) (or (or ?v_65 ?v_63) ?v_70)) (= x_63 ?v_71)) (= x_66 x_48)) (= x_67 x_49)) ?v_72)) (and (and (and (and (= x_69 5) ?v_62) ?v_67) ?v_66) ?v_72))) (or (or (or (or (or (and (and (and (and (and (and (and (and (and (= x_70 0) ?v_62) ?v_75) ?v_73) ?v_64) ?v_68) ?v_76) x_54) ?v_45) ?v_77) (and (and (and (and (and (and (and (and (and (= x_70 1) ?v_62) x_36) ?v_73) (= x_46 1)) ?v_74) ?v_78) ?v_47) x_55) ?v_79)) (and (and (and (and (and (and (and (and (and (= x_70 2) ?v_62) ?v_75) x_37) x_66) ?v_68) ?v_76) x_54) x_55) ?v_77)) (and (and (and (and (and (and (and (and (= x_70 3) ?v_62) x_36) x_37) x_56) ?v_78) ?v_47) ?v_45) ?v_79)) (and (and (and (and (and (and (and (= x_70 4) ?v_69) (or (or ?v_75 x_37) ?v_80)) (or (or ?v_75 ?v_73) ?v_80)) (= x_64 ?v_81)) (= x_56 x_38)) (= x_57 x_39)) ?v_82)) (and (and (and (and (and (and (= x_70 5) ?v_62) ?v_64) x_67) ?v_79) ?v_76) ?v_82))) (or (or (or (or (or (and (and (and (and (and (and (and (and (and (= x_71 0) ?v_62) ?v_85) ?v_83) ?v_74) ?v_78) x_58) ?v_55) ?v_86) ?v_84) (and (and (and (and (and (and (and (= x_71 1) ?v_62) x_40) ?v_83) ?v_57) x_59) ?v_84) ?v_87)) (and (and (and (and (and (and (and (and (and (= x_71 2) ?v_62) ?v_85) x_41) x_56) ?v_78) x_58) x_59) ?v_86) ?v_84)) (and (and (and (and (and (and (and (and (= x_71 3) ?v_62) x_40) x_41) (not (< x_42 1))) ?v_57) ?v_55) ?v_84) ?v_87)) (and (and (and (and (and (and (= x_71 4) ?v_69) (or (or ?v_85 x_41) (<= ?v_88 1))) (or ?v_143 (<= ?v_88 2))) (= x_60 ?v_88)) ?v_89) ?v_84)) (and (and (and (and (and (and (= x_71 5) ?v_62) ?v_74) x_57) ?v_87) ?v_89) ?v_84))) (= x_50 (ite ?v_97 0 1))) (or (or (or (or (or (and (and (and (and (and (and (and (and (= x_51 0) ?v_90) ?v_93) ?v_91) ?v_92) ?v_96) x_43) ?v_63) (= x_45 0)) (and (and (and (and (and (and (and (and (= x_51 1) ?v_90) x_20) ?v_91) (not (<= x_22 2))) ?v_94) ?v_65) x_44) ?v_95)) (and (and (and (and (and (and (and (= x_51 2) ?v_90) ?v_93) x_21) ?v_94) x_43) x_44) ?v_95)) (and (and (and (and (and (and (and (and (= x_51 3) ?v_90) x_20) x_21) x_48) ?v_96) ?v_65) ?v_63) ?v_95)) (and (and (and (and (and (and (and (and (= x_51 4) ?v_97) (or (or ?v_93 x_21) ?v_98)) (or (or x_20 ?v_91) ?v_98)) (or (or ?v_93 ?v_91) ?v_98)) (= x_45 ?v_99)) (= x_48 x_26)) (= x_49 x_27)) ?v_100)) (and (and (and (and (= x_51 5) ?v_90) ?v_95) ?v_94) ?v_100))) (or (or (or (or (or (and (and (and (and (and (and (and (and (and (= x_52 0) ?v_90) ?v_103) ?v_101) ?v_92) ?v_96) ?v_104) x_36) ?v_73) ?v_105) (and (and (and (and (and (and (and (and (and (= x_52 1) ?v_90) x_12) ?v_101) (= x_23 1)) ?v_102) ?v_106) ?v_75) x_37) ?v_107)) (and (and (and (and (and (and (and (and (and (= x_52 2) ?v_90) ?v_103) x_13) x_48) ?v_96) ?v_104) x_36) x_37) ?v_105)) (and (and (and (and (and (and (and (and (= x_52 3) ?v_90) x_12) x_13) x_38) ?v_106) ?v_75) ?v_73) ?v_107)) (and (and (and (and (and (and (and (= x_52 4) ?v_97) (or (or ?v_103 x_13) ?v_108)) (or (or ?v_103 ?v_101) ?v_108)) (= x_46 ?v_109)) (= x_38 x_14)) (= x_39 x_15)) ?v_110)) (and (and (and (and (and (and (= x_52 5) ?v_90) ?v_92) x_49) ?v_107) ?v_104) ?v_110))) (or (or (or (or (or (and (and (and (and (and (and (and (and (and (= x_53 0) ?v_90) ?v_113) ?v_111) ?v_102) ?v_106) x_40) ?v_83) ?v_114) ?v_112) (and (and (and (and (and (and (and (= x_53 1) ?v_90) x_16) ?v_111) ?v_85) x_41) ?v_112) ?v_115)) (and (and (and (and (and (and (and (and (and (= x_53 2) ?v_90) ?v_113) x_17) x_38) ?v_106) x_40) x_41) ?v_114) ?v_112)) (and (and (and (and (and (and (and (and (= x_53 3) ?v_90) x_16) x_17) (not (< x_19 1))) ?v_85) ?v_83) ?v_112) ?v_115)) (and (and (and (and (and (and (= x_53 4) ?v_97) (or (or ?v_113 x_17) (<= ?v_116 1))) (or ?v_144 (<= ?v_116 2))) (= x_42 ?v_116)) ?v_117) ?v_112)) (and (and (and (and (and (and (= x_53 5) ?v_90) ?v_102) x_39) ?v_115) ?v_117) ?v_112))) (= x_28 (ite x_18 0 1))) (or (or (or (or (or (and (and (and (and (and (and (and (and (= x_29 0) ?v_120) ?v_118) ?v_119) ?v_121) ?v_124) x_20) ?v_91) ?v_122) (and (and (and (and (and (and (and (and (= x_29 1) ?v_120) x_0) ?v_119) (not (<= 0 2))) ?v_123) ?v_93) x_21) ?v_122)) (and (and (and (and (and (and (and (= x_29 2) ?v_120) ?v_118) x_1) ?v_123) x_20) x_21) ?v_122)) (and (and (and (and (and (and (and (and (= x_29 3) ?v_120) x_0) x_1) x_26) ?v_124) ?v_93) ?v_91) ?v_122)) (and (and (and (and (and (and (and (and (= x_29 4) x_18) (or (or ?v_118 x_1) ?v_125)) (or (or x_0 ?v_119) ?v_125)) (or (or ?v_118 ?v_119) ?v_125)) (= x_22 ?v_126)) (= x_26 x_30)) (= x_27 x_31)) ?v_127)) (and (and (and (and (= x_29 5) ?v_120) ?v_122) ?v_123) ?v_127))) (or (or (or (or (or (and (and (and (and (and (and (and (and (and (= x_32 0) ?v_120) ?v_128) ?v_129) ?v_121) ?v_124) ?v_132) x_12) ?v_101) ?v_131) (and (and (and (and (and (and (and (and (and (= x_32 1) ?v_120) x_2) ?v_129) (= 0 1)) ?v_130) ?v_133) ?v_103) x_13) ?v_131)) (and (and (and (and (and (and (and (and (and (= x_32 2) ?v_120) ?v_128) x_3) x_26) ?v_124) ?v_132) x_12) x_13) ?v_131)) (and (and (and (and (and (and (and (and (= x_32 3) ?v_120) x_2) x_3) x_14) ?v_133) ?v_103) ?v_101) ?v_131)) (and (and (and (and (and (and (and (= x_32 4) x_18) (or (or ?v_128 x_3) ?v_134)) (or (or ?v_128 ?v_129) ?v_134)) (= x_23 ?v_126)) (= x_14 x_33)) (= x_15 x_34)) ?v_135)) (and (and (and (and (and (and (= x_32 5) ?v_120) ?v_121) x_27) ?v_131) ?v_132) ?v_135))) (or (or (or (or (or (and (and (and (and (and (and (and (and (and (= x_35 0) ?v_120) ?v_136) ?v_137) ?v_130) ?v_133) x_16) ?v_111) ?v_139) ?v_138) (and (and (and (and (and (and (and (= x_35 1) ?v_120) x_4) ?v_137) ?v_113) x_17) ?v_138) ?v_139)) (and (and (and (and (and (and (and (and (and (= x_35 2) ?v_120) ?v_136) x_5) x_14) ?v_133) x_16) x_17) ?v_139) ?v_138)) (and (and (and (and (and (and (and (and (= x_35 3) ?v_120) x_4) x_5) (not (< 0 1))) ?v_113) ?v_111) ?v_138) ?v_139)) (and (and (and (and (and (and (= x_35 4) x_18) (or (or ?v_136 x_5) ?v_134)) (or ?v_145 (<= ?v_126 2))) (= x_19 ?v_126)) ?v_140) ?v_138)) (and (and (and (and (and (and (= x_35 5) ?v_120) ?v_130) x_15) ?v_139) ?v_140) ?v_138))) (or (or (or (or (or (and (and ?v_7 x_98) (or ?v_29 ?v_30)) (and (and ?v_3 x_80) ?v_141)) (and (and ?v_37 x_62) ?v_142)) (and (and ?v_65 x_44) ?v_143)) (and (and ?v_93 x_21) ?v_144)) (and (and ?v_118 x_1) ?v_145))) (or ?v_133 ?v_130)) (or ?v_124 ?v_121)) (or (not x_31) (not x_30))) (or (not x_34) (not x_33))) (or ?v_106 ?v_102)) (or ?v_96 ?v_92)) (or ?v_78 ?v_74)) (or ?v_68 ?v_64)) (or ?v_50 ?v_46)) (or ?v_40 ?v_36)) (or ?v_18 ?v_14)) (or ?v_6 ?v_2))))))))))))))))))
(check-sat)
(exit)
